15	2	2
3807	3807	
378	28	29	
908	5	5	
612	482	518	
304	246	260	
741	46	49	
600	881	916	
307	270	288	
31	153	161	
687	799	866	
165	141	142	
904	384	389	
302	557	578	
90	658	665	
948	307	325	
726	119	119	
